Route #0: 261 695 864 124 314 959 500 808 961 872 420
Route #1: 754 753 944 346 388 166 34 270 153
Route #2: 234 206 706 248 501 763 5 760 714
Route #3: 929 272 660 386 605 607 453 686 344 859
Route #4: 866 264 884 636 762 612 767 51 709
Route #5: 927 273 316 74 883 588 514 85 291
Route #6: 477 727 275 384 214 757
Route #7: 989 556 481 894 472 352 216 603 81 329 567
Route #8: 518 545 315 146 105 931 537 201 973 178
Route #9: 983 771 542 792 393 87 402 389 11
Route #10: 93 850 370 327 107 240 225 862
Route #11: 581 311 855 17 679 2 886 590
Route #12: 451 437 228 745 368
Route #13: 838 126 349 976 967 484 547 922 911 744
Route #14: 176 793 230 779 871 101 659 59 149
Route #15: 991 252 407 244 464 647 161 868 374 65 610 427 735
Route #16: 817 77 613 449 414 803 86 302
Cost: 245818
